(declare-fun bvlambda_24_ ()Bool         )
(declare-fun bvlambda_25_ ()Bool         )
(declare-fun bvlambda_30_ ()Bool         )
(declare-fun bvlambda_31_ () (_ BitVec 4))
(declare-fun bvlambda_32_ ()Bool         )
(declare-fun bvlambda_33_ ()Bool         )
(declare-fun bvlambda_34_ ()Bool         )
(declare-fun bvlambda_35_ () (_ BitVec 2))
(declare-fun bvlambda_44_ ()Bool         )
(declare-fun bvlambda_48_ ()Bool         )
(declare-fun bvlambda_49_ () (_ BitVec 2))
(declare-fun bvlambda_50_ ()Bool         )
(declare-fun bvlambda_51_ () (_ BitVec 3))
(declare-fun bvlambda_52_ ()Bool         )
(declare-fun bvlambda_53_ () (_ BitVec 3))
(declare-fun bvlambda_54_ ()Bool         )
(declare-fun a164 () (Array (_ BitVec 1) (_ BitVec 5)))
(assert
(let (($e1 false    ))
(let (($e17 (_ bv0 3)))
(let (($e29 (_ bv0 13)))
(let (($e30 (_ bv57912 16)))
(let (($e42 (_ bv0 4)))
(let (($e45 (_ bv18 5)))
(let (($e196 (concat $e29 bvlambda_34_)))
(let (($e197 (concat $e196 bvlambda_35_)))
(let (($e198 (bvurem $e197        $e30 )))
(let (($e199 (   extract        $e198)))
(let (($e202 (concat        $e17  bvlambda_24_)))
(let (($e203 (concat $e202 bvlambda_25_)))
(let (($e204                           $e203       ))
(let (($e205 (store a164 $e1 $e204)))
(let (($e206 (store $e205 $e199        $e45 )))
(let (($e326 (concat        $e42  bvlambda_30_)))
(let (($e327 (concat $e326 bvlambda_31_)))
(let (($e328 (concat $e327 bvlambda_32_)))
(let (($e329 (concat $e328 bvlambda_33_)))
(let (($e330                           $e329       ))
(let (($e331 (concat bvlambda_48_ bvlambda_49_)))
(let (($e332 (concat $e331 bvlambda_50_)))
(let (($e333 (concat $e332 bvlambda_51_)))
(let (($e334 (concat $e333 bvlambda_52_)))
(let (($e335 (concat $e334 bvlambda_53_)))
(let (($e336      (bvult $e335 $e330)         ))
(let (($e615        (bvnot bvlambda_30_)               ))
(let (($e616        (bvnot $e615)       ))
(let (($e617        (bvnot $e616)               ))
(let (($e629              (bvnot $e617) ))
(let (($e630 (select $e206 true       )))
(let (($e633 (   extract      $e630)))
(let (($e634               $e633                ))
(let (($e643               $e634          ))
(let (($e651 (concat $e42 $e336)))
(let (($e652 (store a164 bvlambda_44_ $e651)))
(let (($e653 (select $e652 bvlambda_54_)))
(let (($e654              $e653 ))
(let (($e655              $e654 ))
(let (($e658 (   extract      $e655)))
(let (($e659        (bvnot $e658)               ))
(let (($e660 (bvand (bvnot $e659) $e643)))
                  (= $e660 $e629)
                                                                                                                                                                                                                                                                                                                                                                                                                                                                                                                                                                                                                                                                                                                                                                                                                                                                                                                                                                                                                                                                                                                                                                                                                                                                                                                                                                                                                                                                                                                                             )))  )))))       )        ))  ))           )))                                                                                                                                                                                                                                                                                      )))))))))))                                                                                                                       )))))  ))))                                                                                    )  )           ))           )               ))
